\* Problem: Assemblage *\
\* Q1 est velo cargo et Q2 est velo standard *\
Maximize
Benefice: 700 Q1 + 300 Q2 

Subject To
CapacitedeTemps : 6 Q1 + 5 Q2 <= 6000
CapaciteduParking : 2.5 Q1 +  Q2 <= 1500
CapacitedeBatteries : Q1 <= 700
MinQ1 : Q1 >= 0
MinQ2 : Q2 >= 0


End


 

